1611534
39 62 8740
62 37 30446
37 53 6554
53 50 48925
50 28 10810
28 44 76431
44 10 75759
10 18 28652
18 57 27906
57 33 88918
33 52 101509
52 14 39276
14 31 70585
31 22 39447
22 43 102153
43 46 69394
46 34 36286
34 55 20835
55 26 61621
26 66 57991
66 11 13370
11 64 35955
64 67 14572
67 7 19183
7 38 28523
38 41 39159
41 30 5056
30 25 1249
25 6 11949
6 29 14521
29 60 6419
60 23 7498
23 49 4353
49 19 8895
19 5 15574
5 40 3130
40 56 3489
56 32 1427
32 12 4813
12 42 4831
42 3 13084
3 21 17216
21 61 26988
61 24 5437
24 1 15310
1 54 18207
54 13 13536
13 47 9114
47 4 12782
4 20 4440
20 65 13332
65 48 17626
48 2 7938
2 63 25131
63 16 14689
16 59 10880
59 36 8563
36 8 11459
8 15 6874
15 58 6904
58 9 1777
9 17 5356
17 27 1445
27 45 8214
45 68 50028
68 35 19070
35 51 8926
51 39 11004
